NAME : mnist2m.pruned_global_8.tour
TYPE : TOUR
DIMENSION : 784
TOUR_SECTION
1
275
276
279
280
283
284
287
288
301
302
303
304
305
306
307
308
309
310
311
312
313
314
315
316
317
329
330
331
332
333
334
335
336
337
338
339
340
341
342
343
344
345
357
358
359
360
361
362
363
364
365
366
367
368
369
370
371
372
373
386
387
390
391
394
395
398
399
413
414
417
418
421
422
425
426
429
441
444
445
448
449
450
453
470
471
473
474
475
476
482
497
501
502
503
505
509
513
514
515
516
517
544
545
546
573
574
575
603
631
659
687
688
689
690
691
692
693
694
695
696
697
698
699
700
701
702
703
704
705
706
707
708
709
710
711
712
713
714
715
716
717
718
719
720
721
722
723
724
725
726
727
728
729
730
731
732
733
734
735
736
737
738
739
740
741
742
743
744
745
746
747
748
749
750
751
752
753
754
755
756
757
758
759
760
761
762
763
764
765
766
767
768
769
770
771
772
773
774
775
776
777
778
779
780
781
782
783
784
2
191
192
195
196
199
200
203
204
207
235
236
264
265
292
293
294
321
322
323
350
351
378
379
406
407
434
435
436
437
465
493
494
522
550
578
606
634
635
636
637
638
639
640
641
642
643
644
645
646
647
648
649
650
651
652
653
3
161
162
165
166
169
170
173
174
177
178
189
190
193
194
197
198
201
202
205
206
219
220
223
224
227
228
231
232
246
247
250
251
254
255
258
259
262
263
291
319
320
347
348
349
376
377
404
405
432
433
460
461
462
463
464
492
520
521
549
577
605
633
661
662
663
664
665
666
667
668
669
670
671
672
673
674
675
676
677
678
679
680
681
682
4
133
134
137
138
141
142
145
146
149
150
153
154
155
182
183
184
211
212
213
240
241
242
269
270
271
298
299
326
327
354
355
382
383
411
412
439
440
451
455
456
468
469
472
480
483
484
485
499
500
504
506
508
512
524
527
528
531
532
535
536
539
540
552
553
554
555
556
557
558
559
560
561
562
563
564
565
566
567
568
569
581
582
585
586
589
590
593
594
597
598
599
627
628
656
684
5
131
132
135
136
139
140
143
144
147
148
151
152
160
163
164
167
168
171
172
175
176
179
180
181
208
209
210
237
238
239
266
267
268
295
296
297
324
325
352
353
380
381
408
409
410
438
466
467
495
523
551
579
580
583
584
587
588
591
592
595
596
607
608
609
610
611
612
613
614
615
616
617
618
619
620
621
622
623
624
625
626
654
655
683
6
9
10
13
14
17
18
21
22
25
26
29
30
33
34
37
38
41
42
45
46
49
50
53
54
57
58
61
62
65
66
69
70
73
74
77
78
81
82
85
86
89
90
93
94
97
98
101
102
105
106
109
110
113
114
117
118
121
122
125
126
130
158
159
187
188
216
217
218
221
222
225
226
229
230
233
234
248
249
252
253
256
257
260
261
274
277
278
281
282
285
286
289
290
318
346
374
375
402
403
430
431
458
459
486
487
488
489
490
491
518
519
547
548
576
604
632
660
7
8
11
12
15
16
19
20
23
24
27
28
31
32
35
36
39
40
43
44
47
48
51
52
55
56
59
60
63
64
67
68
71
72
75
76
79
80
83
84
87
88
91
92
95
96
99
100
103
104
107
108
111
112
115
116
119
120
123
124
127
128
129
156
157
185
186
214
215
243
244
245
272
273
300
328
356
384
385
388
389
392
393
396
397
400
401
415
416
419
420
423
424
427
428
442
443
446
447
452
454
457
477
478
479
481
496
498
507
510
511
525
526
529
530
533
534
537
538
541
542
543
570
571
572
600
601
602
629
630
657
658
685
686
-1
EOF
